10 10 10
50
8 5 1
5 3 1
2 3 5
8 6 4
2 4 10
10 6 3
7 7 2
4 8 8
1 8 3
3 7 6
5 3 6
7 5 7
6 3 5
10 10 6
8 2 7
1 7 7
3 8 9
3 9 7
10 4 10
3 10 9
10 6 6
3 8 3
6 4 9
8 4 4
5 6 1
4 5 5
5 2 6
9 6 8
1 4 6
8 2 1
5 6 2
7 10 5
4 3 9
2 3 6
9 1 8
10 1 2
1 3 4
5 8 5
9 3 1
7 9 6
3 7 3
3 2 2
1 4 10
9 3 6
3 2 3
8 1 1
2 4 4
6 4 4
1 6 4
6 6 1
